122 24 113 119 110 133 163 30 59 41 140 51 44 181 198 65 196 190 174 19 139 77 50 117 81 184 67 11 8 167 20 2 147 7 169 38 109 166 194 192 188 182 161 103 146 56 165 99 170 82 128 13 84 36 71 72 75 58 149 28 93 1 120 151 14 102 101 114 105 195 152 53 175 10 95 23 89 98 100 63 78 125 158 104 108 183 127 18 136 193 48 26 131 118 145 25 22 12 86 39 121 64 96 46 62 94 45 70 157 115 154 90 162 92 142 5 33 129 54 29 180 148 97 73 178 55 132 87 134 173 138 172 191 37 150 91 9 164 160 197 112 49 159 176 4 74 155 0 69 15 111 107 27 76 60 34 123 106 35 116 52 153 88 144 47 42 189 61 187 83 40 79 143 179 141 57 16 80 43 85 68 171 124 168 3 137 126 199 186 66 17 135 156 21 130 185 32 31 6 177 

